start=1;

limit = 6;

n = 40;

m=[|-1,-1,1,-1,2,-1,4,-1,15,11,20,11,-1,-1,-1,20,16,11,16,8,7,1,-1,-1,-1,-1,14,-1,2,-1,10,18,14,-1,0,20,1,-1,17,-1,
|-1,-1,-1,19,-1,20,-1,12,-1,15,-1,-1,-1,-1,7,-1,11,-1,10,-1,11,17,17,-1,-1,-1,10,18,-1,-1,-1,10,-1,-1,-1,3,-1,-1,-1,1,
|17,16,-1,17,3,-1,-1,-1,20,16,-1,12,-1,-1,-1,-1,10,15,-1,20,-1,-1,-1,10,-1,5,-1,-1,7,18,0,17,4,-1,16,-1,-1,3,10,2,
|1,-1,-1,-1,0,-1,14,8,-1,-1,4,2,1,-1,14,-1,-1,7,-1,-1,-1,1,17,11,16,-1,17,-1,13,-1,-1,9,8,-1,0,-1,5,9,-1,-1,
|-1,-1,3,4,-1,-1,2,2,9,1,14,15,-1,14,8,1,17,4,-1,9,-1,2,12,12,14,17,-1,20,13,-1,-1,18,20,-1,11,-1,-1,-1,19,14,
|-1,11,-1,8,-1,-1,7,-1,-1,-1,20,12,0,18,-1,-1,19,0,14,-1,4,-1,-1,0,-1,3,5,-1,-1,1,19,-1,18,8,-1,1,-1,14,16,3,
|19,15,12,2,-1,12,-1,-1,4,-1,13,3,7,3,-1,-1,-1,0,16,7,1,-1,4,0,-1,5,12,8,16,-1,-1,14,1,-1,16,-1,-1,-1,7,-1,
|-1,-1,-1,-1,6,17,-1,-1,12,14,-1,-1,17,20,3,3,-1,-1,12,6,-1,16,-1,-1,-1,10,8,5,-1,2,2,-1,-1,-1,-1,0,9,-1,8,-1,
|14,-1,-1,13,-1,-1,8,0,-1,7,-1,-1,-1,-1,-1,2,15,2,-1,-1,-1,3,4,13,-1,2,15,-1,-1,17,-1,16,0,-1,1,-1,15,-1,-1,-1,
|-1,6,5,17,-1,11,14,-1,-1,-1,14,-1,2,8,-1,12,12,17,14,-1,7,13,17,-1,5,-1,2,8,-1,6,-1,-1,13,-1,15,1,-1,5,11,11,
|-1,-1,-1,-1,-1,-1,9,14,-1,-1,-1,-1,-1,-1,13,3,19,10,-1,-1,-1,-1,-1,3,-1,3,-1,-1,15,17,-1,-1,-1,1,-1,1,-1,5,14,-1,
|-1,-1,6,9,3,-1,20,-1,16,20,-1,-1,-1,-1,-1,3,-1,3,9,-1,-1,16,-1,-1,-1,-1,-1,16,11,9,5,-1,-1,13,8,1,10,10,17,15,
|-1,4,-1,16,-1,20,14,6,5,-1,-1,1,-1,12,1,-1,9,-1,14,9,-1,16,-1,0,-1,-1,-1,-1,20,-1,18,9,-1,0,17,-1,-1,0,-1,-1,
|-1,-1,-1,-1,-1,-1,-1,10,13,1,12,-1,-1,-1,-1,-1,14,-1,16,10,-1,1,-1,-1,10,-1,17,20,-1,3,10,-1,-1,-1,2,-1,-1,-1,-1,-1,
|5,-1,-1,-1,-1,3,18,14,-1,3,10,15,8,-1,-1,5,-1,-1,19,20,5,6,-1,-1,-1,9,11,-1,11,1,-1,-1,16,17,-1,19,7,-1,-1,1,
|-1,-1,-1,-1,19,-1,7,-1,-1,8,-1,6,-1,-1,3,-1,2,16,-1,-1,-1,-1,-1,-1,7,-1,-1,15,-1,-1,12,-1,19,-1,-1,5,-1,-1,-1,19,
|9,-1,-1,-1,-1,2,0,-1,-1,19,7,-1,-1,11,-1,9,-1,11,-1,-1,14,-1,-1,-1,14,3,-1,9,-1,-1,-1,7,19,0,5,-1,9,-1,-1,17,
|-1,-1,-1,17,19,9,2,-1,-1,4,-1,19,8,19,9,-1,-1,-1,-1,14,0,6,-1,13,19,9,0,-1,-1,-1,7,1,2,-1,-1,14,10,3,-1,-1,
|-1,-1,0,6,-1,-1,5,10,-1,5,2,1,-1,14,0,14,20,-1,-1,-1,-1,1,3,-1,-1,13,2,-1,-1,-1,2,7,-1,11,-1,7,-1,-1,-1,19,
|-1,-1,-1,-1,-1,11,6,6,17,-1,14,0,17,11,-1,5,4,-1,-1,-1,-1,16,-1,-1,15,19,-1,-1,6,17,6,-1,-1,-1,-1,0,17,2,12,5,
|20,17,-1,-1,-1,-1,-1,2,-1,-1,-1,-1,-1,6,-1,17,-1,-1,7,5,-1,-1,18,-1,-1,8,1,-1,-1,-1,16,-1,-1,17,-1,-1,-1,-1,-1,20,
|0,-1,-1,13,20,15,10,-1,5,19,10,-1,-1,9,-1,0,8,-1,-1,8,2,-1,0,-1,11,13,13,-1,19,-1,15,-1,-1,18,-1,19,11,9,-1,7,
|10,-1,-1,19,-1,6,14,-1,4,19,-1,-1,0,14,10,2,-1,17,-1,16,6,16,-1,10,2,-1,7,-1,12,-1,-1,-1,-1,7,-1,-1,13,-1,0,-1,
|3,-1,-1,13,-1,-1,8,0,-1,1,3,6,-1,5,4,-1,-1,10,14,-1,13,17,12,-1,-1,-1,2,9,-1,-1,11,18,-1,15,-1,9,2,6,-1,-1,
|-1,-1,14,3,-1,5,-1,3,8,19,4,16,-1,-1,-1,-1,7,2,-1,-1,6,8,-1,-1,-1,-1,3,-1,-1,18,-1,-1,16,-1,-1,-1,8,-1,7,-1,
|-1,15,-1,6,-1,-1,19,4,1,-1,3,-1,16,1,3,3,-1,9,-1,9,-1,-1,-1,-1,-1,-1,5,-1,-1,20,16,14,-1,-1,16,-1,17,-1,13,9,
|4,10,16,-1,16,1,-1,-1,-1,18,-1,-1,-1,13,8,4,-1,-1,11,1,-1,17,-1,10,3,-1,-1,20,-1,-1,-1,9,-1,-1,18,7,20,-1,20,-1,
|18,-1,2,0,16,-1,-1,0,7,12,-1,-1,-1,-1,-1,1,-1,-1,-1,12,-1,11,6,19,-1,-1,1,-1,9,13,11,-1,18,-1,-1,-1,-1,8,-1,13,
|7,-1,-1,15,-1,-1,5,-1,-1,8,-1,19,-1,4,1,13,20,14,-1,-1,-1,4,-1,9,19,0,-1,-1,-1,-1,7,16,-1,-1,-1,-1,4,-1,-1,-1,
|17,12,4,-1,-1,9,20,1,-1,11,6,-1,1,8,-1,-1,16,-1,-1,19,8,-1,14,7,9,-1,-1,6,-1,-1,7,5,12,6,-1,13,4,20,-1,18,
|-1,3,-1,-1,-1,-1,-1,-1,-1,19,-1,0,15,-1,17,-1,-1,14,-1,-1,2,2,-1,1,-1,2,-1,-1,-1,15,-1,-1,-1,6,-1,11,1,12,20,8,
|-1,-1,2,-1,5,4,-1,19,-1,3,-1,-1,5,-1,9,5,1,-1,5,-1,-1,17,-1,-1,14,-1,-1,16,12,12,9,-1,8,3,16,1,19,-1,-1,-1,
|-1,-1,-1,13,-1,-1,7,-1,11,16,9,13,16,-1,15,-1,-1,11,5,16,-1,11,15,1,16,13,16,-1,5,-1,16,19,-1,8,-1,-1,-1,8,-1,1,
|7,6,-1,-1,-1,12,-1,-1,-1,6,17,16,-1,12,-1,9,2,11,9,20,11,8,12,11,17,-1,6,10,-1,-1,-1,20,9,-1,2,7,19,-1,-1,-1,
|6,13,10,-1,16,14,0,10,5,-1,8,-1,-1,-1,16,-1,19,5,7,3,8,6,-1,-1,-1,-1,12,9,14,-1,-1,-1,-1,4,-1,1,-1,11,16,13,
|17,3,-1,8,-1,-1,-1,3,-1,14,5,-1,-1,14,-1,-1,13,13,19,-1,6,15,6,-1,-1,1,11,4,18,-1,16,20,-1,-1,-1,-1,-1,-1,3,-1,
|-1,-1,-1,-1,19,14,8,-1,10,-1,-1,17,-1,-1,11,10,13,10,-1,-1,-1,17,0,9,13,0,1,5,-1,18,-1,-1,-1,-1,-1,-1,-1,15,15,4,
|-1,-1,-1,19,9,6,13,13,-1,0,-1,-1,16,12,16,-1,-1,-1,-1,-1,-1,2,-1,-1,0,-1,4,6,-1,-1,-1,-1,1,-1,-1,19,-1,-1,-1,-1,
|-1,7,-1,-1,-1,2,16,5,2,-1,-1,-1,4,18,2,-1,6,16,-1,-1,9,-1,-1,-1,2,-1,-1,-1,-1,-1,-1,8,17,-1,-1,7,-1,-1,-1,-1,
|10,-1,13,-1,-1,6,2,-1,-1,16,20,-1,6,-1,10,5,-1,-1,20,-1,-1,-1,-1,-1,15,16,-1,1,-1,18,-1,17,7,4,0,14,-1,-1,18,-1,
|];